// geometry
Nx := 100
Ny := 100
Nz := 1

cellsizeX := 1e-9
cellsizeY := 1e-9
cellsizeZ := 1e-9

SetGridsize(Nx, Ny, Nz)
SetCellsize(cellsizeX, cellsizeY, cellsizeZ)

// define regions:circular region
setgeom(circle(Nx*cellsizeX))
OutputFormat = OVF2_TEXT
save(regions)



Msat  = 580e3
Aex   = 15e-12
alpha = 0.1
anisU = vector(0,0,1)
Ku1   = 7.5e5
Dind = 3.0e-3

// define regions
// define grains with region number 0-255
grainSize  := 10e-9  // m
randomSeed := 1234567
maxRegion  := 98
ext_makegrains(grainSize, maxRegion, randomSeed)
defregion(99, circle(Nx*cellsizeX).inverse()) // region 256 is outside, not really needed

K := 8e5
D := 2.7e-3
delta := 0.2 // anisotropy variation
randSeed(5)


save(regions)

// add skyrmions
Diameter := 40e-9
Distance := 60e-9
m = uniform(0,0,1)
m.setInShape(circle(Diameter).Transl(0,0,0), NeelSkyrmion(1,-1).Transl(0,0,0))

relax() 
run(1e-9) 


//setting the saving formats
P := 5e-12
//autosave(m, 5*P)
OutputFormat = OVF2_TEXT
tableautosave(P)
TableAdd(Ku1.Region(100))
TableAdd(Dind.Region(100))

alpha = 0.01
Ku_Diameter := 100e-9
DefRegion(100, circle(Ku_Diameter))
f := 4e9
Period := 800*P

//fix the Ku for each Period, send a pulse of DMI variation
Num := 21

for i:=0; i<Num; i++{
     temp1 :=s.get(0,i,0,0)
     //temp2 :=s.get(0, trunc(i/10)+3000,0,0)
     //Ku1.SetRegion(100, 8e5+0.5e5*((temp1-1)*2-1)*sin(2*pi*f*(t-1e-9)))
     //Dind.SetRegion(100, 3.0e-3+0.4e-3*((temp2-1)*2-1)*sin(2*pi*f/10*(t-1e-9)))
     Ku1.SetRegion(100, 7.5e5+i*0.05e5)
     Dind.SetRegion(100, 3.0e-3+0.1e-3)
     run(Period/4)
     Dind.SetRegion(100, 3.0e-3)
     run(Period/4*3)
}






